p cnf 25 57
a 9 1 0
e 2 3 4 5 6 7 8 10 11 12 13 14 15 16 17 18 19 20 21 22 23 24 25 0
-3 1 0
-3 -2 0
-1 2 3 0
-5 -1 0
-5 -4 0
1 4 5 0
1 -5 -6 0
-1 5 -6 0
1 5 6 0
-1 -5 6 0
-7 -3 0
-7 -6 0
3 6 7 0
-11 -9 0
-11 -10 0
9 10 11 0
-12 -8 0
-12 11 0
8 -11 12 0
13 -7 0
13 -12 0
7 12 -13 0
15 1 0
15 14 0
-1 -14 -15 0
-16 -8 0
-16 -2 0
8 2 16 0
-18 16 0
-18 -17 0
-16 17 18 0
19 -15 0
19 -18 0
15 18 -19 0
5 -16 -20 0
-5 16 -20 0
5 16 20 0
-5 -16 20 0
20 21 0
-20 21 0
-16 22 0
16 22 0
-23 -21 0
-23 22 0
21 -22 23 0
24 -19 0
24 23 0
19 -23 -24 0
25 13 0
25 -24 0
-13 24 -25 0
-7 18 9 8 0
-23 -10 13 18 -15 0
25 -13 9 -12 3 -14 15 0
23 -7 -10 12 24 3 0
4 -14 -1 -10 -22 0
25 0
